; benchmark generated from python API
(set-info :status unknown)
(declare-fun x_days () (_ BitVec 32))
(assert
 (bvsle (_ bv4294930771 32) x_days))
(assert
 (bvsge (_ bv36523 32) x_days))
(assert
 (= x_days (_ bv7304 32)))
(assert
 (let ((?x6054 (bvadd x_days (_ bv730179 32))))
(let ((?x5450 (bvsmod ?x6054 (_ bv146097 32))))
(let ((?x1702 (bvsdiv ?x5450 (_ bv36524 32))))
(let ((?x4290 (ite (bvsle (_ bv4 32) ?x1702) (_ bv3 32) ?x1702)))
(let ((?x4091 (bvsub ?x5450 (bvmul ?x4290 (_ bv36524 32)))))
(let ((?x4599 (bvsmod ?x4091 (_ bv1461 32))))
(let ((?x2070 (bvsdiv ?x4599 (_ bv365 32))))
(let ((?x1482 (ite (bvsle (_ bv4 32) ?x2070) (_ bv3 32) ?x2070)))
(let ((?x1298 (bvadd (bvadd (bvmul (bvsdiv ?x6054 (_ bv146097 32)) (_ bv400 32)) (bvmul ?x4290 (_ bv100 32))) (bvmul (bvsdiv ?x4091 (_ bv1461 32)) (_ bv4 32)))))
(let ((?x5687 (bvadd (bvadd ?x1298 ?x1482) (_ bv1 32))))
(let (($x1899 (or (and (= (bvsmod ?x5687 (_ bv4 32)) (_ bv0 32)) (and (distinct (bvsmod ?x5687 (_ bv100 32)) (_ bv0 32)) true)) (= (bvsmod ?x5687 (_ bv400 32)) (_ bv0 32)))))
(let ((?x755 (bvsub ?x4599 (bvmul ?x1482 (_ bv365 32)))))
(let ((?x4054 (ite $x1899 (_ bv31 32) (_ bv31 32))))
(let (($x3935 (bvsge ?x755 ?x4054)))
(let ((?x2930 (ite $x3935 (bvadd (bvsub ?x755 ?x4054) (_ bv1 32)) (bvadd (bvsub ?x755 (ite $x1899 (_ bv0 32) (_ bv0 32))) (_ bv1 32)))))
(let ((?x1400 (ite $x1899 (_ bv60 32) (_ bv59 32))))
(let (($x909 (bvsge ?x755 ?x1400)))
(let ((?x3940 (ite $x1899 (_ bv91 32) (_ bv90 32))))
(let (($x4016 (bvsge ?x755 ?x3940)))
(let ((?x453 (ite $x4016 (bvadd (bvsub ?x755 ?x3940) (_ bv1 32)) (ite $x909 (bvadd (bvsub ?x755 ?x1400) (_ bv1 32)) ?x2930))))
(let ((?x713 (ite $x1899 (_ bv121 32) (_ bv120 32))))
(let (($x2232 (bvsge ?x755 ?x713)))
(let ((?x5591 (ite $x1899 (_ bv152 32) (_ bv151 32))))
(let (($x4535 (bvsge ?x755 ?x5591)))
(let ((?x2980 (ite $x4535 (bvadd (bvsub ?x755 ?x5591) (_ bv1 32)) (ite $x2232 (bvadd (bvsub ?x755 ?x713) (_ bv1 32)) ?x453))))
(let ((?x765 (ite $x1899 (_ bv182 32) (_ bv181 32))))
(let (($x1416 (bvsge ?x755 ?x765)))
(let ((?x3793 (ite $x1899 (_ bv213 32) (_ bv212 32))))
(let (($x1535 (bvsge ?x755 ?x3793)))
(let ((?x3058 (ite $x1535 (bvadd (bvsub ?x755 ?x3793) (_ bv1 32)) (ite $x1416 (bvadd (bvsub ?x755 ?x765) (_ bv1 32)) ?x2980))))
(let ((?x4337 (ite $x1899 (_ bv244 32) (_ bv243 32))))
(let (($x4722 (bvsge ?x755 ?x4337)))
(let ((?x3241 (ite $x1899 (_ bv274 32) (_ bv273 32))))
(let (($x546 (bvsge ?x755 ?x3241)))
(let ((?x4615 (ite $x546 (bvadd (bvsub ?x755 ?x3241) (_ bv1 32)) (ite $x4722 (bvadd (bvsub ?x755 ?x4337) (_ bv1 32)) ?x3058))))
(let ((?x25816 (ite $x1899 (_ bv305 32) (_ bv304 32))))
(let (($x731 (bvsge ?x755 ?x25816)))
(let ((?x4295 (ite $x1899 (_ bv335 32) (_ bv334 32))))
(let (($x4946 (bvsge ?x755 ?x4295)))
(let ((?x5071 (ite $x4946 (bvadd (bvsub ?x755 ?x4295) (_ bv1 32)) (ite $x731 (bvadd (bvsub ?x755 ?x25816) (_ bv1 32)) ?x4615))))
(let ((?x6801 (ite $x4535 (_ bv6 32) (ite $x2232 (_ bv5 32) (ite $x4016 (_ bv4 32) (ite $x909 (_ bv3 32) (ite $x3935 (_ bv2 32) (_ bv1 32))))))))
(let ((?x2099 (ite $x731 (_ bv11 32) (ite $x546 (_ bv10 32) (ite $x4722 (_ bv9 32) (ite $x1535 (_ bv8 32) (ite $x1416 (_ bv7 32) ?x6801)))))))
(let ((?x754 (bvadd (ite $x4946 (_ bv12 32) ?x2099) (bvadd (bvmul (_ bv1 32) (_ bv12 32)) (_ bv0 32)))))
(let ((?x4045 (bvsub (ite (bvuge ?x754 (_ bv2147483648 32)) (bvsub ?x754 (_ bv0 32)) ?x754) (_ bv1 32))))
(let ((?x2268 (bvsmod ?x4045 (_ bv12 32))))
(let ((?x1618 (bvadd ?x2268 (_ bv1 32))))
(let ((?x1172 (ite (or (= ?x1618 (_ bv4 32)) (= ?x1618 (_ bv6 32)) (= ?x1618 (_ bv9 32)) (= ?x1618 (_ bv11 32))) (_ bv30 32) (_ bv31 32))))
(let ((?x6044 (bvsdiv ?x4045 (_ bv12 32))))
(let ((?x4202 (ite (and (bvuge ?x4045 (_ bv2147483648 32)) (and (distinct (_ bv0 32) ?x2268) true)) (bvsub ?x6044 (_ bv1 32)) ?x6044)))
(let ((?x4396 (bvadd ?x5687 (bvadd (_ bv0 32) ?x4202))))
(let (($x1045 (or (and (= (bvsmod ?x4396 (_ bv4 32)) (_ bv0 32)) (and (distinct (bvsmod ?x4396 (_ bv100 32)) (_ bv0 32)) true)) (= (bvsmod ?x4396 (_ bv400 32)) (_ bv0 32)))))
(let ((?x4992 (ite (= ?x1618 (_ bv2 32)) (ite $x1045 (_ bv29 32) (_ bv28 32)) ?x1172)))
(let ((?x2619 (ite (bvsgt (_ bv1 32) ?x5071) (_ bv1 32) (ite (bvsgt ?x5071 ?x4992) ?x4992 ?x5071))))
(let ((?x4110 (ite (bvsgt (_ bv1 32) ?x2619) (_ bv1 32) (ite (bvsgt ?x2619 ?x4992) ?x4992 ?x2619))))
(let ((?x25839 (ite (= (_ bv2 32) ?x1618) (ite $x1045 (_ bv31 32) (_ bv31 32)) (ite (= (_ bv1 32) ?x1618) (ite $x1045 (_ bv0 32) (_ bv0 32)) (_ bv0 32)))))
(let ((?x2411 (ite (= (_ bv4 32) ?x1618) (ite $x1045 (_ bv91 32) (_ bv90 32)) (ite (= (_ bv3 32) ?x1618) (ite $x1045 (_ bv60 32) (_ bv59 32)) ?x25839))))
(let ((?x4605 (ite (= (_ bv6 32) ?x1618) (ite $x1045 (_ bv152 32) (_ bv151 32)) (ite (= (_ bv5 32) ?x1618) (ite $x1045 (_ bv121 32) (_ bv120 32)) ?x2411))))
(let ((?x4236 (ite (= (_ bv8 32) ?x1618) (ite $x1045 (_ bv213 32) (_ bv212 32)) (ite (= (_ bv7 32) ?x1618) (ite $x1045 (_ bv182 32) (_ bv181 32)) ?x4605))))
(let ((?x6819 (ite (= (_ bv10 32) ?x1618) (ite $x1045 (_ bv274 32) (_ bv273 32)) (ite (= (_ bv9 32) ?x1618) (ite $x1045 (_ bv244 32) (_ bv243 32)) ?x4236))))
(let ((?x6767 (ite (= (_ bv12 32) ?x1618) (ite $x1045 (_ bv335 32) (_ bv334 32)) (ite (= (_ bv11 32) ?x1618) (ite $x1045 (_ bv305 32) (_ bv304 32)) ?x6819))))
(let ((?x1552 (bvadd (bvmul (_ bv365 32) (bvsub ?x4396 (_ bv1 32))) (bvsdiv (bvsub ?x4396 (_ bv1 32)) (_ bv4 32)))))
(let ((?x1915 (bvadd (bvsub ?x1552 (bvsdiv (bvsub ?x4396 (_ bv1 32)) (_ bv100 32))) (bvsdiv (bvsub ?x4396 (_ bv1 32)) (_ bv400 32)))))
(let ((?x1252 (bvadd (bvadd (bvsub (bvadd (bvadd ?x1915 ?x6767) (bvsub ?x4110 (_ bv1 32))) (_ bv730179 32)) (_ bv0 32)) (_ bv730179 32))))
(let ((?x6705 (bvsmod ?x1252 (_ bv146097 32))))
(let ((?x3365 (bvsdiv ?x6705 (_ bv36524 32))))
(let ((?x1176 (ite (bvsle (_ bv4 32) ?x3365) (_ bv3 32) ?x3365)))
(let ((?x3969 (bvsub ?x6705 (bvmul ?x1176 (_ bv36524 32)))))
(let ((?x2168 (bvsmod ?x3969 (_ bv1461 32))))
(let ((?x4118 (bvsdiv ?x2168 (_ bv365 32))))
(let ((?x1819 (ite (bvsle (_ bv4 32) ?x4118) (_ bv3 32) ?x4118)))
(let ((?x2918 (bvadd (bvadd (bvmul (bvsdiv ?x1252 (_ bv146097 32)) (_ bv400 32)) (bvmul ?x1176 (_ bv100 32))) (bvmul (bvsdiv ?x3969 (_ bv1461 32)) (_ bv4 32)))))
(let ((?x2581 (bvadd (bvadd ?x2918 ?x1819) (_ bv1 32))))
(let (($x4799 (or (and (= (bvsmod ?x2581 (_ bv4 32)) (_ bv0 32)) (and (distinct (bvsmod ?x2581 (_ bv100 32)) (_ bv0 32)) true)) (= (bvsmod ?x2581 (_ bv400 32)) (_ bv0 32)))))
(let ((?x2466 (bvsub ?x2168 (bvmul ?x1819 (_ bv365 32)))))
(let ((?x2945 (ite $x4799 (_ bv31 32) (_ bv31 32))))
(let (($x1268 (bvsge ?x2466 ?x2945)))
(let ((?x4289 (ite $x1268 (bvadd (bvsub ?x2466 ?x2945) (_ bv1 32)) (bvadd (bvsub ?x2466 (ite $x4799 (_ bv0 32) (_ bv0 32))) (_ bv1 32)))))
(let ((?x5343 (ite $x4799 (_ bv60 32) (_ bv59 32))))
(let (($x3950 (bvsge ?x2466 ?x5343)))
(let ((?x3292 (ite $x4799 (_ bv91 32) (_ bv90 32))))
(let (($x4108 (bvsge ?x2466 ?x3292)))
(let ((?x25740 (ite $x4108 (bvadd (bvsub ?x2466 ?x3292) (_ bv1 32)) (ite $x3950 (bvadd (bvsub ?x2466 ?x5343) (_ bv1 32)) ?x4289))))
(let ((?x830 (ite $x4799 (_ bv121 32) (_ bv120 32))))
(let (($x514 (bvsge ?x2466 ?x830)))
(let ((?x3829 (ite $x4799 (_ bv152 32) (_ bv151 32))))
(let (($x6671 (bvsge ?x2466 ?x3829)))
(let ((?x1359 (ite $x6671 (bvadd (bvsub ?x2466 ?x3829) (_ bv1 32)) (ite $x514 (bvadd (bvsub ?x2466 ?x830) (_ bv1 32)) ?x25740))))
(let ((?x3249 (ite $x4799 (_ bv182 32) (_ bv181 32))))
(let (($x6278 (bvsge ?x2466 ?x3249)))
(let ((?x6717 (ite $x4799 (_ bv213 32) (_ bv212 32))))
(let (($x3359 (bvsge ?x2466 ?x6717)))
(let ((?x3481 (ite $x3359 (bvadd (bvsub ?x2466 ?x6717) (_ bv1 32)) (ite $x6278 (bvadd (bvsub ?x2466 ?x3249) (_ bv1 32)) ?x1359))))
(let ((?x1988 (ite $x4799 (_ bv244 32) (_ bv243 32))))
(let (($x4089 (bvsge ?x2466 ?x1988)))
(let ((?x3992 (ite $x4799 (_ bv274 32) (_ bv273 32))))
(let (($x25768 (bvsge ?x2466 ?x3992)))
(let ((?x6596 (ite $x25768 (bvadd (bvsub ?x2466 ?x3992) (_ bv1 32)) (ite $x4089 (bvadd (bvsub ?x2466 ?x1988) (_ bv1 32)) ?x3481))))
(let ((?x3190 (ite $x4799 (_ bv305 32) (_ bv304 32))))
(let (($x4050 (bvsge ?x2466 ?x3190)))
(let ((?x3581 (ite $x4799 (_ bv335 32) (_ bv334 32))))
(let (($x511 (bvsge ?x2466 ?x3581)))
(let ((?x2372 (ite $x511 (bvadd (bvsub ?x2466 ?x3581) (_ bv1 32)) (ite $x4050 (bvadd (bvsub ?x2466 ?x3190) (_ bv1 32)) ?x6596))))
(let (($x603 (= (_ bv0 32) (_ bv0 32))))
(let (($x40399 (and (= (bvsmod (ite $x603 ?x4396 ?x2581) (_ bv4 32)) (_ bv0 32)) (and (distinct (bvsmod (ite $x603 ?x4396 ?x2581) (_ bv100 32)) (_ bv0 32)) true))))
(let (($x30026 (or $x40399 (= (bvsmod (ite $x603 ?x4396 ?x2581) (_ bv400 32)) (_ bv0 32)))))
(let ((?x1114 (ite $x6671 (_ bv6 32) (ite $x514 (_ bv5 32) (ite $x4108 (_ bv4 32) (ite $x3950 (_ bv3 32) (ite $x1268 (_ bv2 32) (_ bv1 32))))))))
(let ((?x3601 (ite $x4050 (_ bv11 32) (ite $x25768 (_ bv10 32) (ite $x4089 (_ bv9 32) (ite $x3359 (_ bv8 32) (ite $x6278 (_ bv7 32) ?x1114)))))))
(let ((?x3493 (ite $x603 ?x1618 (ite $x511 (_ bv12 32) ?x3601))))
(let ((?x28621 (ite (= (_ bv2 32) ?x3493) (ite $x30026 (_ bv31 32) (_ bv31 32)) (ite (= (_ bv1 32) ?x3493) (ite $x30026 (_ bv0 32) (_ bv0 32)) (_ bv0 32)))))
(let ((?x26928 (ite (= (_ bv4 32) ?x3493) (ite $x30026 (_ bv91 32) (_ bv90 32)) (ite (= (_ bv3 32) ?x3493) (ite $x30026 (_ bv60 32) (_ bv59 32)) ?x28621))))
(let ((?x39554 (ite (= (_ bv6 32) ?x3493) (ite $x30026 (_ bv152 32) (_ bv151 32)) (ite (= (_ bv5 32) ?x3493) (ite $x30026 (_ bv121 32) (_ bv120 32)) ?x26928))))
(let ((?x21173 (ite (= (_ bv8 32) ?x3493) (ite $x30026 (_ bv213 32) (_ bv212 32)) (ite (= (_ bv7 32) ?x3493) (ite $x30026 (_ bv182 32) (_ bv181 32)) ?x39554))))
(let ((?x1735 (ite (= (_ bv10 32) ?x3493) (ite $x30026 (_ bv274 32) (_ bv273 32)) (ite (= (_ bv9 32) ?x3493) (ite $x30026 (_ bv244 32) (_ bv243 32)) ?x21173))))
(let ((?x22062 (ite (= (_ bv12 32) ?x3493) (ite $x30026 (_ bv335 32) (_ bv334 32)) (ite (= (_ bv11 32) ?x3493) (ite $x30026 (_ bv305 32) (_ bv304 32)) ?x1735))))
(let ((?x3695 (bvadd (bvmul (_ bv365 32) (bvsub (ite $x603 ?x4396 ?x2581) (_ bv1 32))) (bvsdiv (bvsub (ite $x603 ?x4396 ?x2581) (_ bv1 32)) (_ bv4 32)))))
(let ((?x4158 (bvadd (bvsub ?x3695 (bvsdiv (bvsub (ite $x603 ?x4396 ?x2581) (_ bv1 32)) (_ bv100 32))) (bvsdiv (bvsub (ite $x603 ?x4396 ?x2581) (_ bv1 32)) (_ bv400 32)))))
(let ((?x4534 (bvsub (bvadd (bvadd ?x4158 ?x22062) (bvsub (ite $x603 ?x4110 ?x2372) (_ bv1 32))) (_ bv730179 32))))
(= ?x4534 (_ bv7669 32))))))))))))))))))))))))))))))))))))))))))))))))))))))))))))))))))))))))))))))))))))))))))))))))))))))))))))))))))))))))
(check-sat)
